<instance format="XCSP3" type="COP">
  <variables>
    <array id="x" note="x[i][j] is 1 if a coin is placed at row i and column j" size="[8][8]"> 0 1 </array>
  </variables>
  <constraints>
    <group>
      <sum>
        <list> %... </list>
        <condition> (eq,4) </condition>
      </sum>
      <args> x[0][] </args>
      <args> x[1][] </args>
      <args> x[2][] </args>
      <args> x[3][] </args>
      <args> x[4][] </args>
      <args> x[5][] </args>
      <args> x[6][] </args>
      <args> x[7][] </args>
    </group>
    <group>
      <sum>
        <list> %... </list>
        <condition> (eq,4) </condition>
      </sum>
      <args> x[][0] </args>
      <args> x[][1] </args>
      <args> x[][2] </args>
      <args> x[][3] </args>
      <args> x[][4] </args>
      <args> x[][5] </args>
      <args> x[][6] </args>
      <args> x[][7] </args>
    </group>
  </constraints>
  <objectives>
    <minimize type="sum">
      <list> x[][] </list>
      <coeffs> 0 1 4 9 16 25 36 49 1 0 1 4 9 16 25 36 4 1 0 1 4 9 16 25 9 4 1 0 1 4 9 16 16 9 4 1 0 1 4 9 25 16 9 4 1 0 1 4 36 25 16 9 4 1 0 1 49 36 25 16 9 4 1 0 </coeffs>
    </minimize>
  </objectives>
</instance>
